(set-info :origin "SVCOMP13 benchmarks generated by Arie Gurfinkel")
(set-info :status sat)
(set-logic HORN)
(declare-fun cp-rel-bb2.i.i21.i.i () Bool)
(declare-fun cp-rel-entry () Bool)
(declare-fun cp-rel-bb1.i.i (Real Real Real) Bool)
(assert |cp-rel-entry|)
(assert (forall ((?A Real) (?B Real) (?C Real) (?D Bool) )(let (($x808375 (and |cp-rel-entry| (<= ?C 0.0) (>= ?B 1.0) (<= ?B 1.0) (>= ?A 0.0) (<= ?A 0.0) (= ?D true) (>= ?C 0.0))))
(=> $x808375 (|cp-rel-bb1.i.i| ?A ?B ?C))))
)
(assert (forall ((?A Real) (?B Real) (?C Real) (?D Real) (?E Real) (?F Real) (?G Bool) (?H Bool) (?I Bool) (?J Bool) (?K Bool) (?L Bool) (?M Real) (?N Real) (?O Bool) (?P Bool) (?Q Bool) (?R Bool) (?S Bool) (?T Bool) (?U Real) (?V Real) (?W Bool) (?X Bool) (?Y Bool) (?Z Bool) (?A1 Bool) (?B1 Bool) (?C1 Real) (?D1 Real) (?E1 Bool) (?F1 Bool) (?G1 Bool) (?H1 Bool) (?I1 Bool) (?J1 Bool) (?K1 Real) (?L1 Real) (?M1 Bool) (?N1 Bool) (?O1 Real) (?P1 Bool) (?Q1 Real) (?R1 Real) (?S1 Bool) (?T1 Bool) (?U1 Real) (?V1 Bool) (?W1 Bool) (?X1 Bool) (?Y1 Bool) (?Z1 Bool) (?A2 Bool) )(let (($x423823 (|cp-rel-bb1.i.i| ?D ?E ?F)))
(let (($x626803 (= ?N1 (and ?A2 ?Z1))))
(let (($x505354 (or (not ?G) (and ?H ?I (not ?J)))))
(let (($x216981 (or (not ?G) ?I)))
(let (($x644287 (not ?K)))
(let (($x453240 (or $x644287 (and ?G ?L (<= ?M ?N) (>= ?M ?N)) (and ?H ?O ?J (<= ?M ?B) (>= ?M ?B)))))
(let (($x281398 (or $x644287 (and ?L (not ?O)) (and ?O (not ?L)))))
(let (($x349366 (or (not ?P) (and ?K ?Q (not ?R)))))
(let (($x82040 (or (not ?P) ?Q)))
(let (($x558581 (not ?S)))
(let (($x151147 (or $x558581 (and ?P ?T (<= ?U ?V) (>= ?U ?V)) (and ?K ?W ?R (<= ?U ?A) (>= ?U ?A)))))
(let (($x201659 (or $x558581 (and ?T (not ?W)) (and ?W (not ?T)))))
(let (($x546912 (or (not ?X) (and ?S ?Y (not ?Z)))))
(let (($x78638 (or (not ?X) ?Y)))
(let (($x540778 (or (not ?A1) (and ?X ?B1 (<= ?C1 ?D1) (>= ?C1 ?D1)) (and ?S ?E1 ?Z (<= ?C1 ?M) (>= ?C1 ?M)))))
(let (($x476668 (or (not ?A1) (and ?B1 (not ?E1)) (and ?E1 (not ?B1)))))
(let (($x386357 (or (not ?F1) (and ?A1 ?G1 ?H1))))
(let (($x253369 (or (not ?F1) ?G1)))
(let (($x866535 (not ?I1)))
(let (($x287334 (or $x866535 (and ?F1 ?J1 (<= ?K1 ?L1) (>= ?K1 ?L1)) (and ?A1 ?M1 (not ?H1) (<= ?K1 ?C) (>= ?K1 ?C)))))
(let (($x359926 (or $x866535 (and ?J1 (not ?M1)) (and ?M1 (not ?J1)))))
(let (($x115136 (= ?I1 true)))
(let (($x568670 (= ?J (= ?O1 0.0))))
(let (($x234781 (= ?Q1 (ite ?P1 1.0 0.0))))
(let (($x545610 (= ?R (= ?R1 0.0))))
(let (($x368647 (= ?V (ite ?S1 1.0 0.0))))
(let (($x154137 (= ?T1 (not (<= ?M 0.0)))))
(let (($x174386 (= ?U1 (+ (~ 1.0) ?M))))
(let (($x604503 (= ?D1 (ite ?T1 ?U1 ?M))))
(let (($x304224 (= ?V1 (not (<= ?C1 1.0)))))
(let (($x577754 (= ?H1 (and ?V1 ?Z))))
(let (($x113238 (= ?W1 (= ?U 0.0))))
(let (($x595798 (= ?X1 (= ?U 0.0))))
(let (($x286553 (= ?Y1 (= ?C1 2.0))))
(let (($x312142 (= ?Z1 (= ?K1 0.0))))
(let (($x272586 (= ?A2 (and ?Y1 ?X1))))
(let (($x363422 (and (|cp-rel-bb1.i.i| ?A ?B ?C) $x272586 $x312142 $x286553 $x595798 (= ?L1 (ite ?W1 1.0 ?C)) $x113238 $x577754 $x304224 $x604503 $x174386 $x154137 (= ?Z (= ?C 0.0)) $x368647 (= ?S1 (= ?A 0.0)) $x545610 (= ?N (+ ?Q1 ?B)) $x234781 (= ?P1 (not (<= 2.0 ?B))) $x568670 (>= ?F ?K1) (<= ?F ?K1) (>= ?E ?C1) (<= ?E ?C1) (>= ?D ?U) (<= ?D ?U) (not (= ?N1 true)) $x115136 $x359926 $x287334 $x253369 $x386357 $x476668 $x540778 $x78638 $x546912 $x201659 $x151147 $x82040 $x349366 $x281398 $x453240 $x216981 $x505354 $x626803)))
(=> $x363422 $x423823)))))))))))))))))))))))))))))))))))))))
)
(assert (forall ((?A Real) (?B Real) (?C Real) (?D Bool) (?E Bool) (?F Bool) (?G Bool) (?H Bool) (?I Bool) (?J Real) (?K Real) (?L Bool) (?M Bool) (?N Bool) (?O Bool) (?P Bool) (?Q Bool) (?R Real) (?S Real) (?T Bool) (?U Bool) (?V Bool) (?W Bool) (?X Bool) (?Y Bool) (?Z Real) (?A1 Real) (?B1 Bool) (?C1 Bool) (?D1 Bool) (?E1 Bool) (?F1 Bool) (?G1 Bool) (?H1 Real) (?I1 Real) (?J1 Bool) (?K1 Bool) (?L1 Real) (?M1 Bool) (?N1 Real) (?O1 Real) (?P1 Bool) (?Q1 Bool) (?R1 Real) (?S1 Bool) (?T1 Bool) (?U1 Bool) (?V1 Bool) (?W1 Bool) (?X1 Bool) )(let (($x626803 (= ?K1 (and ?X1 ?W1))))
(let (($x505354 (or (not ?D) (and ?E ?F (not ?G)))))
(let (($x216981 (or (not ?D) ?F)))
(let (($x644287 (not ?H)))
(let (($x266635 (or $x644287 (and ?D ?I (<= ?J ?K) (>= ?J ?K)) (and ?E ?L ?G (<= ?J ?B) (>= ?J ?B)))))
(let (($x281398 (or $x644287 (and ?I (not ?L)) (and ?L (not ?I)))))
(let (($x349366 (or (not ?M) (and ?H ?N (not ?O)))))
(let (($x82040 (or (not ?M) ?N)))
(let (($x558581 (not ?P)))
(let (($x850487 (or $x558581 (and ?M ?Q (<= ?R ?S) (>= ?R ?S)) (and ?H ?T ?O (<= ?R ?A) (>= ?R ?A)))))
(let (($x201659 (or $x558581 (and ?Q (not ?T)) (and ?T (not ?Q)))))
(let (($x546912 (or (not ?U) (and ?P ?V (not ?W)))))
(let (($x78638 (or (not ?U) ?V)))
(let (($x540778 (or (not ?X) (and ?U ?Y (<= ?Z ?A1) (>= ?Z ?A1)) (and ?P ?B1 ?W (<= ?Z ?J) (>= ?Z ?J)))))
(let (($x476668 (or (not ?X) (and ?Y (not ?B1)) (and ?B1 (not ?Y)))))
(let (($x386357 (or (not ?C1) (and ?X ?D1 ?E1))))
(let (($x253369 (or (not ?C1) ?D1)))
(let (($x866535 (not ?F1)))
(let (($x232640 (or $x866535 (and ?C1 ?G1 (<= ?H1 ?I1) (>= ?H1 ?I1)) (and ?X ?J1 (not ?E1) (<= ?H1 ?C) (>= ?H1 ?C)))))
(let (($x359926 (or $x866535 (and ?G1 (not ?J1)) (and ?J1 (not ?G1)))))
(let (($x115136 (= ?F1 true)))
(let (($x386529 (= ?K1 true)))
(let (($x568670 (= ?G (= ?L1 0.0))))
(let (($x234781 (= ?N1 (ite ?M1 1.0 0.0))))
(let (($x545610 (= ?O (= ?O1 0.0))))
(let (($x368647 (= ?S (ite ?P1 1.0 0.0))))
(let (($x154137 (= ?Q1 (not (<= ?J 0.0)))))
(let (($x174386 (= ?R1 (+ (~ 1.0) ?J))))
(let (($x604503 (= ?A1 (ite ?Q1 ?R1 ?J))))
(let (($x304224 (= ?S1 (not (<= ?Z 1.0)))))
(let (($x577754 (= ?E1 (and ?S1 ?W))))
(let (($x113238 (= ?T1 (= ?R 0.0))))
(let (($x595798 (= ?U1 (= ?R 0.0))))
(let (($x286553 (= ?V1 (= ?Z 2.0))))
(let (($x312142 (= ?W1 (= ?H1 0.0))))
(let (($x272586 (= ?X1 (and ?V1 ?U1))))
(let (($x423823 (|cp-rel-bb1.i.i| ?A ?B ?C)))
(let (($x919934 (and $x423823 $x272586 $x312142 $x286553 $x595798 (= ?I1 (ite ?T1 1.0 ?C)) $x113238 $x577754 $x304224 $x604503 $x174386 $x154137 (= ?W (= ?C 0.0)) $x368647 (= ?P1 (= ?A 0.0)) $x545610 (= ?K (+ ?N1 ?B)) $x234781 (= ?M1 (not (<= 2.0 ?B))) $x568670 $x386529 $x115136 $x359926 $x232640 $x253369 $x386357 $x476668 $x540778 $x78638 $x546912 $x201659 $x850487 $x82040 $x349366 $x281398 $x266635 $x216981 $x505354 $x626803)))
(=> $x919934 |cp-rel-bb2.i.i21.i.i|))))))))))))))))))))))))))))))))))))))))
)
(assert (not cp-rel-bb2.i.i21.i.i))
(check-sat)
